100
3 0
14 0
36 0
25 3
42 1
1 4
16 3
41 4
12 2
2 1
24 3
33 3
39 2
27 3
31 4
29 0
18 4
16 4
30 4
10 3
0 0
42 0
7 4
43 4
34 2
3 4
3 2
42 3
30 0
11 4
32 0
38 0
23 4
37 2
42 2
19 4
36 4
34 3
3 1
0 4
4 2
15 1
7 1
6 4
27 0
18 1
27 4
21 4
25 4
31 1
40 1
33 0
39 0
38 4
12 4
29 3
1 3
9 0
7 0
21 2
14 3
18 3
20 4
22 4
43 1
10 0
40 4
4 3
37 0
22 2
21 3
42 4
40 0
15 0
31 0
4 4
14 4
12 0
19 1
2 3
11 0
1 1
16 0
0 1
28 0
9 1
6 1
32 4
10 2
10 4
21 0
34 0
5 4
20 0
6 3
23 3
11 2
2 0
36 3
19 0

